; Query 0 -- Type: InitialValues, Instructions: 1287
; This file conforms to SMTLIBv2 and was generated by KLEE
(set-option :produce-models true)
(set-logic QF_AUFBV )
; Array declarations
(declare-fun AccessKey () (Array (_ BitVec 32) (_ BitVec 8) ) )
; Constraints
; Constraints and QueryExpr
(assert
        (= 
           (_ bv16051073965533040813 64)
           (concat 
                   (select 
                           AccessKey
                           (_ bv15 32)
                   )
                   (concat 
                           (select 
                                   AccessKey
                                   (_ bv14 32)
                           )
                           (concat 
                                   (select 
                                           AccessKey
                                           (_ bv13 32)
                                   )
                                   (concat 
                                           (select 
                                                   AccessKey
                                                   (_ bv12 32)
                                           )
                                           (concat 
                                                   (select 
                                                           AccessKey
                                                           (_ bv11 32)
                                                   )
                                                   (concat 
                                                           (select 
                                                                   AccessKey
                                                                   (_ bv10 32)
                                                           )
                                                           (concat 
                                                                   (select 
                                                                           AccessKey
                                                                           (_ bv9 32)
                                                                   )
                                                                   (select 
                                                                           AccessKey
                                                                           (_ bv8 32)
                                                                   )
                                                           )
                                                   )
                                           )
                                   )
                           )
                   )
           )
        )
)
(check-sat)
(get-value ( (select AccessKey (_ bv0 32) ) ) )
(get-value ( (select AccessKey (_ bv1 32) ) ) )
(get-value ( (select AccessKey (_ bv2 32) ) ) )
(get-value ( (select AccessKey (_ bv3 32) ) ) )
(get-value ( (select AccessKey (_ bv4 32) ) ) )
(get-value ( (select AccessKey (_ bv5 32) ) ) )
(get-value ( (select AccessKey (_ bv6 32) ) ) )
(get-value ( (select AccessKey (_ bv7 32) ) ) )
(get-value ( (select AccessKey (_ bv8 32) ) ) )
(get-value ( (select AccessKey (_ bv9 32) ) ) )
(get-value ( (select AccessKey (_ bv10 32) ) ) )
(get-value ( (select AccessKey (_ bv11 32) ) ) )
(get-value ( (select AccessKey (_ bv12 32) ) ) )
(get-value ( (select AccessKey (_ bv13 32) ) ) )
(get-value ( (select AccessKey (_ bv14 32) ) ) )
(get-value ( (select AccessKey (_ bv15 32) ) ) )
(exit)
;   OK -- Elapsed: 2.232457e-02s
;   Solvable: true
;     AccessKey = [255,255,255,255,255,255,255,255,173,16,30,187,186,222,192,222]

; Query 1 -- Type: InitialValues, Instructions: 4596
; This file conforms to SMTLIBv2 and was generated by KLEE
(set-logic QF_AUFBV )
; Array declarations
; Constraints
; Constraints and QueryExpr
(assert
        true
)
(check-sat)
(exit)
;   OK -- Elapsed: 6.017983e-03s
;   Solvable: true

; Query 2 -- Type: InitialValues, Instructions: 4596
; This file conforms to SMTLIBv2 and was generated by KLEE
(set-option :produce-models true)
(set-logic QF_AUFBV )
; Array declarations
(declare-fun VendorGuid () (Array (_ BitVec 32) (_ BitVec 8) ) )
; Constraints
; Constraints and QueryExpr
(assert
        (= 
           false
           (= 
              (_ bv0 64)
              (concat 
                      (select 
                              VendorGuid
                              (_ bv7 32)
                      )
                      (concat 
                              (select 
                                      VendorGuid
                                      (_ bv6 32)
                              )
                              (concat 
                                      (select 
                                              VendorGuid
                                              (_ bv5 32)
                                      )
                                      (concat 
                                              (select 
                                                      VendorGuid
                                                      (_ bv4 32)
                                              )
                                              (concat 
                                                      (select 
                                                              VendorGuid
                                                              (_ bv3 32)
                                                      )
                                                      (concat 
                                                              (select 
                                                                      VendorGuid
                                                                      (_ bv2 32)
                                                              )
                                                              (concat 
                                                                      (select 
                                                                              VendorGuid
                                                                              (_ bv1 32)
                                                                      )
                                                                      (select 
                                                                              VendorGuid
                                                                              (_ bv0 32)
                                                                      )
                                                              )
                                                      )
                                              )
                                      )
                              )
                      )
              )
           )
        )
)
(check-sat)
(get-value ( (select VendorGuid (_ bv0 32) ) ) )
(get-value ( (select VendorGuid (_ bv1 32) ) ) )
(get-value ( (select VendorGuid (_ bv2 32) ) ) )
(get-value ( (select VendorGuid (_ bv3 32) ) ) )
(get-value ( (select VendorGuid (_ bv4 32) ) ) )
(get-value ( (select VendorGuid (_ bv5 32) ) ) )
(get-value ( (select VendorGuid (_ bv6 32) ) ) )
(get-value ( (select VendorGuid (_ bv7 32) ) ) )
(exit)
;   OK -- Elapsed: 1.023126e-02s
;   Solvable: true
;     VendorGuid = [1,1,1,1,1,1,1,1]

